(set-logic QF_SLIA)
(declare-fun var0 () String)
(assert (str.in_re var0 (re.++ ((_ re.loop 19 910) (re.++ (re.union (str.to_re "$") (re.union (str.to_re "97$") (re.union (str.to_re ",)~") (str.to_re "H}3")))) (re.++ (re.union (str.to_re "T|") (re.union (str.to_re "9p4") (re.union (str.to_re "SV/") (str.to_re "mTB")))) (re.++ (re.union (str.to_re "JXR") (re.union (str.to_re "A~k") (re.union (str.to_re "E") (str.to_re "RR")))) (re.union (str.to_re "/O") (re.union (str.to_re "[n") (re.union (str.to_re "J") (str.to_re "@")))))))) (re.++ ((_ re.loop 19 40) (re.++ (re.union (str.to_re "Q") (re.union (str.to_re "E?") (re.union (str.to_re ":i") (str.to_re "b[f")))) (re.++ (re.union (str.to_re "x-") (re.union (str.to_re "B'W") (re.union (str.to_re "]") (str.to_re "-<W")))) (re.++ (re.union (str.to_re "HQX") (re.union (str.to_re "%") (re.union (str.to_re "^h") (str.to_re "Ge")))) (re.union (str.to_re "v") (re.union (str.to_re "QQ") (re.union (str.to_re "y") (str.to_re "(:")))))))) (re.++ ((_ re.loop 15 891) (re.++ (re.union (str.to_re "[h") (re.union (str.to_re "U") (re.union (str.to_re "55") (str.to_re "`")))) (re.++ (re.union (str.to_re "x") (re.union (str.to_re "[`F") (re.union (str.to_re "sq") (str.to_re "a")))) (re.++ (re.union (str.to_re "LI") (re.union (str.to_re "+8R") (re.union (str.to_re "$") (str.to_re "k]Z")))) (re.union (str.to_re "iPY") (re.union (str.to_re "+e") (re.union (str.to_re "w:") (str.to_re "Jv$")))))))) ((_ re.loop 15 708) (re.++ (re.union (str.to_re "g`") (re.union (str.to_re "1") (re.union (str.to_re "Vm@") (str.to_re "i")))) (re.++ (re.union (str.to_re "Hs") (re.union (str.to_re "Nq&") (re.union (str.to_re "HA") (str.to_re "r8A")))) (re.++ (re.union (str.to_re "sDS") (re.union (str.to_re ".Fs") (re.union (str.to_re "\\K") (str.to_re "td")))) (re.union (str.to_re "F@") (re.union (str.to_re "xw") (re.union (str.to_re "\\?") (str.to_re "Py_")))))))))))))
(assert (not (str.in_re var0 (re.++ ((_ re.loop 20 951) (re.++ (re.union (str.to_re "}CJ") (re.union (str.to_re "w_T") (re.union (str.to_re "E^") (str.to_re "S\\u")))) (re.++ (re.union (str.to_re "f7") (re.union (str.to_re "Hu") (re.union (str.to_re "[") (str.to_re "/iE")))) (re.++ (re.union (str.to_re "_E") (re.union (str.to_re "o") (re.union (str.to_re "UB") (str.to_re ">9")))) (re.union (str.to_re "8dg") (re.union (str.to_re "4W") (re.union (str.to_re "9") (str.to_re "PG")))))))) (re.++ ((_ re.loop 7 732) (re.++ (re.union (str.to_re "N%0") (re.union (str.to_re "V11") (re.union (str.to_re "-L@") (str.to_re "'G")))) (re.++ (re.union (str.to_re ";w") (re.union (str.to_re ":v") (re.union (str.to_re "'WE") (str.to_re "d")))) (re.++ (re.union (str.to_re "G8$") (re.union (str.to_re "dz") (re.union (str.to_re "Ia") (str.to_re "^b")))) (re.union (str.to_re "a_z") (re.union (str.to_re "d") (re.union (str.to_re "Q.D") (str.to_re "pR")))))))) (re.++ ((_ re.loop 10 967) (re.++ (re.union (str.to_re "<\u0022") (re.union (str.to_re "vc!") (re.union (str.to_re ">u") (str.to_re "6")))) (re.++ (re.union (str.to_re "b") (re.union (str.to_re "{;}") (re.union (str.to_re "}") (str.to_re "rl")))) (re.++ (re.union (str.to_re "k}") (re.union (str.to_re ">P") (re.union (str.to_re "Y") (str.to_re "o^~")))) (re.union (str.to_re "X") (re.union (str.to_re "d") (re.union (str.to_re "I#") (str.to_re "o>I")))))))) ((_ re.loop 14 543) (re.++ (re.union (str.to_re "#9") (re.union (str.to_re "w") (re.union (str.to_re "f!") (str.to_re "c])")))) (re.++ (re.union (str.to_re "~#|") (re.union (str.to_re "P") (re.union (str.to_re "Z") (str.to_re ",")))) (re.++ (re.union (str.to_re ",T") (re.union (str.to_re "y") (re.union (str.to_re "m") (str.to_re "+")))) (re.union (str.to_re ")^") (re.union (str.to_re "_]") (re.union (str.to_re "H.}") (str.to_re "f6N"))))))))))))))
(assert (not (str.in_re var0 (re.++ (re.* re.allchar) (re.++ (re.union (str.to_re "<") (re.union (str.to_re ">") (re.union (str.to_re "'") (re.union (str.to_re "\u0022") (str.to_re "&"))))) (re.* re.allchar))))))
(assert (<= 50 (str.len var0)))
(check-sat)
(get-model)
